NAME           momo-example
ROWS
 N  obj     
 L  c1     
 L  c2      
 L  c3      
COLUMNS
    x1        obj                             36
    x2        obj                             24
    x1        c1                              3
    x2        c1                              0
    x1        c2                              1
    x2        c2                              1
    x1        c3                              0
    x2        c3                              2
RHS
    rhs       c1                              16
    rhs       c2                              27
    rhs       c3                              10
BOUNDS
 UP bnd       x1                              6
 UP bnd       x2                              6
ENDATA
